language ESSENCE' 1.0
letting nrows be 4
letting ncols be 4

letting nrobots be 1
letting robot_pos be [[1, 2]]

letting ntasks be 2
letting task_obj  be [2, 1]
letting task_dest be [[4,4],
                      [4,4]]

letting time_limit be 11

letting map be [[ 0, 0, 0, 0],
                [-1, 1, 2, 0],
                [-1, 3, 1, 0],
                [-1, 0, 0, 0]]

